Route #1: 25 24 23 22 20 19 18 17 16 15 14 13 12 11 10 9 8 7 6 5 4 3
Route #2: 27 28 29 30 31 32 33 34 35 36 75 74 73 72 71 70 69 68 67 66 65 64 63 62 61 21
Route #3: 60 59 58 57 56 55 54 53 52 51 50 49 48 47 46 45 44 43 42 41 80 79 78 118 117 77 38
Route #4: 37 76 116 115 114 113 112 111 110 109 108 107 106 105 104 103 102 101 100 99 98 97 96 95 93 92 91 90 89
Route #5: 88 87 86 85 84 83 82 81 120 119 159 160 121 122 123 124 125 126 127 128 129 130 131 132 133 134 94
Route #6: 137 138 139 140 141 142 143 144 145 146 147 148 149 150 151 152 153 154 194 195 196 197 198 158 157 156 155
Route #7: 136 176 177 178 179 180 181 182 183 184 224 225 226 227 228 229 230 231 232 233 193 192 191 190 189 188 187 186 26
Route #8: 135 175 174 173 172 171 210 209 208 207 206 205 204 203 202 201 240 239 199 200 161 162 2 1 40 39
Route #9: 168 167 166 165 164 163 238 237 236 235 234 185 223 222 221 220 219 218 217 216 215 214 213 212 211 170 169
Cost 6006
